p tw 92 2888
0 1
0 2
0 3
0 4
0 5
0 6
0 7
0 8
0 9
0 10
0 11
0 12
0 13
0 14
0 15
0 18
0 25
0 34
0 38
0 40
0 41
0 42
0 43
0 44
0 45
0 46
0 47
0 19
0 20
0 30
0 39
0 48
0 65
0 68
0 80
0 81
0 36
0 59
0 61
0 62
0 66
0 67
0 74
0 77
0 27
0 33
0 35
0 57
0 58
0 60
0 71
0 72
0 22
0 24
0 49
0 52
0 75
0 83
0 84
0 21
0 76
0 16
0 37
0 55
0 79
0 90
0 29
0 85
0 89
0 17
0 26
0 87
0 56
0 69
0 73
1 2
1 3
1 4
1 5
1 6
1 7
1 8
1 9
1 10
1 11
1 12
1 13
1 14
1 15
1 17
1 22
1 26
1 28
1 31
1 32
1 33
1 34
1 35
1 36
1 37
1 38
1 39
1 18
1 23
1 40
1 43
1 47
1 48
1 49
1 50
1 51
1 52
1 24
1 27
1 44
1 53
1 60
1 61
1 62
1 63
1 64
1 25
1 59
1 66
1 67
1 74
1 77
1 80
1 16
1 41
1 58
1 65
1 85
1 30
1 69
1 73
1 79
1 84
1 89
1 46
1 57
1 75
1 87
1 90
2 3
2 4
2 5
2 6
2 7
2 8
2 9
2 10
2 11
2 12
2 13
2 14
2 15
2 18
2 22
2 23
2 24
2 27
2 44
2 49
2 53
2 60
2 61
2 62
2 63
2 64
2 19
2 26
2 38
2 48
2 56
2 59
2 65
2 68
2 70
2 72
2 74
2 77
2 28
2 47
2 54
2 73
2 75
2 87
2 31
2 33
2 36
2 37
2 51
2 83
2 20
2 29
2 34
2 40
2 45
2 58
2 50
2 66
2 81
2 89
2 91
2 39
2 42
2 52
2 76
2 84
2 21
2 25
2 46
2 78
2 43
2 67
2 85
3 4
3 5
3 6
3 7
3 8
3 9
3 10
3 11
3 12
3 13
3 14
3 15
3 26
3 31
3 53
3 58
3 60
3 62
3 72
3 73
3 77
3 82
3 83
3 20
3 27
3 33
3 35
3 43
3 45
3 57
3 71
3 74
3 17
3 21
3 30
3 37
3 42
3 46
3 48
3 54
3 56
3 61
3 75
3 79
3 88
3 22
3 24
3 38
3 52
3 67
3 76
3 81
3 16
3 29
3 34
3 39
3 85
3 89
3 23
3 44
3 47
3 64
3 84
3 59
3 66
3 69
3 90
4 5
4 6
4 7
4 8
4 9
4 10
4 11
4 12
4 13
4 14
4 15
4 17
4 18
4 33
4 34
4 43
4 45
4 59
4 68
4 71
4 73
4 74
4 26
4 31
4 53
4 58
4 60
4 62
4 72
4 77
4 82
4 83
4 23
4 25
4 32
4 47
4 54
4 61
4 67
4 69
4 70
4 85
4 28
4 64
4 75
4 87
4 21
4 22
4 24
4 30
4 35
4 38
4 52
4 76
4 81
4 16
4 29
4 39
4 89
4 50
4 51
4 66
4 91
4 42
4 44
4 84
5 6
5 7
5 8
5 9
5 10
5 11
5 12
5 13
5 14
5 15
5 18
5 22
5 23
5 35
5 38
5 39
5 40
5 43
5 47
5 48
5 49
5 50
5 51
5 52
5 54
5 63
5 67
5 73
5 75
5 77
5 20
5 27
5 33
5 45
5 57
5 58
5 60
5 62
5 71
5 72
5 74
5 24
5 26
5 61
5 69
5 82
5 86
5 87
5 17
5 34
5 37
5 41
5 46
5 65
5 89
5 90
6 7
6 8
6 9
6 10
6 11
6 12
6 13
6 14
6 15
6 25
6 36
6 39
6 43
6 59
6 61
6 62
6 66
6 67
6 74
6 77
6 80
6 16
6 23
6 27
6 44
6 55
6 68
6 70
6 75
6 79
6 82
6 86
6 87
6 28
6 47
6 54
6 60
6 64
6 73
6 38
6 71
6 81
6 85
6 89
7 8
7 9
7 10
7 11
7 12
7 13
7 14
7 15
7 17
7 18
7 33
7 34
7 43
7 45
7 59
7 68
7 71
7 73
7 74
7 39
7 48
7 54
7 63
7 67
7 75
7 77
7 26
7 31
7 53
7 58
7 60
7 62
7 72
7 82
7 83
7 22
7 24
7 27
7 30
7 36
7 40
7 49
7 52
7 84
7 16
7 23
7 44
7 55
7 70
7 79
7 86
7 87
7 28
7 47
7 64
7 19
7 37
7 66
7 90
8 9
8 10
8 11
8 12
8 13
8 14
8 15
8 16
8 17
8 18
8 19
8 20
8 21
8 22
8 23
8 24
8 25
8 26
8 27
8 28
8 29
8 30
8 35
8 44
8 45
8 47
8 52
8 53
8 58
8 59
8 64
8 66
8 67
8 75
8 76
8 32
8 41
8 54
8 56
8 62
8 63
8 78
8 79
8 39
8 40
8 43
8 48
8 65
8 68
8 80
8 81
8 55
8 70
8 82
8 86
8 87
8 34
8 37
8 46
8 57
8 89
8 90
9 10
9 11
9 12
9 13
9 14
9 15
9 18
9 25
9 34
9 38
9 40
9 41
9 42
9 43
9 44
9 45
9 46
9 47
9 16
9 22
9 28
9 49
9 50
9 51
9 53
9 55
9 58
9 63
9 68
9 23
9 26
9 29
9 39
9 52
9 64
9 73
9 76
9 84
9 21
9 32
9 36
9 69
9 72
9 81
9 85
9 86
9 87
10 11
10 12
10 13
10 14
10 15
10 17
10 22
10 26
10 28
10 31
10 32
10 33
10 34
10 35
10 36
10 37
10 38
10 39
10 18
10 23
10 24
10 27
10 44
10 49
10 53
10 60
10 61
10 62
10 63
10 64
10 16
10 29
10 65
10 66
10 67
10 68
10 69
10 70
10 71
10 72
10 45
10 47
10 52
10 58
10 59
10 75
10 76
10 20
10 43
10 57
10 74
10 19
10 55
10 79
10 90
10 51
10 77
10 83
10 48
10 56
10 73
10 85
11 12
11 13
11 14
11 15
11 39
11 48
11 54
11 63
11 67
11 73
11 75
11 77
11 16
11 22
11 28
11 49
11 50
11 51
11 53
11 55
11 58
11 68
11 23
11 34
11 66
11 81
11 83
11 89
11 91
11 40
11 43
11 61
11 76
11 78
11 85
12 13
12 14
12 15
12 16
12 17
12 18
12 19
12 20
12 21
12 22
12 23
12 24
12 25
12 26
12 27
12 28
12 29
12 30
12 42
12 44
12 47
12 52
12 53
12 54
12 55
12 56
12 57
12 58
12 59
12 36
12 39
12 43
12 61
12 62
12 66
12 67
12 74
12 77
12 80
12 33
12 34
12 85
12 89
12 50
12 51
12 81
12 83
12 91
12 48
12 65
12 69
12 88
12 40
12 63
12 75
12 76
12 78
13 14
13 15
13 18
13 25
13 34
13 38
13 40
13 41
13 42
13 43
13 44
13 45
13 46
13 47
13 22
13 23
13 35
13 39
13 48
13 49
13 50
13 51
13 52
13 26
13 31
13 53
13 58
13 60
13 62
13 72
13 73
13 77
13 82
13 83
13 16
13 24
13 27
13 32
13 59
13 65
13 74
13 85
13 28
13 54
13 64
13 68
13 70
13 75
13 87
13 29
13 56
13 69
13 81
13 88
14 15
14 17
14 22
14 26
14 28
14 31
14 32
14 33
14 34
14 35
14 36
14 37
14 38
14 39
14 18
14 43
14 45
14 59
14 68
14 71
14 73
14 74
14 16
14 24
14 27
14 41
14 58
14 65
14 85
14 20
14 29
14 40
14 56
14 60
14 61
14 83
14 57
14 64
14 66
14 67
14 75
14 76
14 77
14 78
14 80
14 55
14 81
14 82
14 86
14 89
15 16
15 24
15 29
15 32
15 34
15 60
15 64
15 65
15 66
15 67
15 68
15 69
15 70
15 71
15 72
15 39
15 48
15 54
15 63
15 73
15 75
15 77
15 22
15 28
15 49
15 50
15 51
15 53
15 55
15 58
15 25
15 36
15 43
15 59
15 61
15 62
15 74
15 80
15 27
15 30
15 40
15 52
15 83
15 84
15 31
15 41
15 85
15 23
15 26
15 45
15 82
15 86
15 87
15 38
15 81
15 89
16 17
16 18
16 19
16 20
16 21
16 22
16 23
16 24
16 25
16 26
16 27
16 28
16 29
16 30
16 42
16 44
16 47
16 52
16 53
16 54
16 55
16 56
16 57
16 58
16 59
16 32
16 34
16 60
16 64
16 65
16 66
16 67
16 68
16 69
16 70
16 71
16 72
16 49
16 50
16 51
16 63
16 31
16 41
16 74
16 85
16 39
16 43
16 75
16 79
16 82
16 86
16 87
16 38
16 73
16 84
16 89
16 33
16 37
16 62
16 90
16 61
16 77
16 35
16 36
16 76
16 78
16 80
16 81
17 18
17 19
17 20
17 21
17 22
17 23
17 24
17 25
17 26
17 27
17 28
17 29
17 30
17 31
17 32
17 33
17 34
17 35
17 36
17 37
17 38
17 39
17 43
17 45
17 59
17 68
17 71
17 73
17 74
17 42
17 46
17 48
17 54
17 56
17 61
17 72
17 75
17 79
17 88
17 41
17 57
17 65
17 87
17 89
17 90
18 19
18 20
18 21
18 22
18 23
18 24
18 25
18 26
18 27
18 28
18 29
18 30
18 34
18 38
18 40
18 41
18 42
18 43
18 44
18 45
18 46
18 47
18 35
18 39
18 48
18 49
18 50
18 51
18 52
18 53
18 54
18 55
18 56
18 57
18 58
18 59
18 60
18 61
18 62
18 63
18 64
18 33
18 68
18 71
18 73
18 74
18 32
18 78
18 79
18 65
18 80
18 81
18 67
18 69
18 82
18 84
18 76
18 77
18 36
18 72
18 85
18 86
18 87
19 20
19 21
19 22
19 23
19 24
19 25
19 26
19 27
19 28
19 29
19 30
19 42
19 44
19 47
19 52
19 53
19 54
19 55
19 56
19 57
19 58
19 59
19 39
19 40
19 43
19 45
19 48
19 65
19 68
19 80
19 81
19 38
19 70
19 72
19 74
19 77
19 33
19 37
19 60
19 62
19 66
19 79
19 90
20 21
20 22
20 23
20 24
20 25
20 26
20 27
20 28
20 29
20 30
20 39
20 40
20 43
20 45
20 48
20 65
20 68
20 80
20 81
20 33
20 35
20 57
20 58
20 60
20 62
20 71
20 72
20 74
20 37
20 42
20 46
20 54
20 56
20 61
20 75
20 79
20 88
20 34
20 36
20 83
21 22
21 23
21 24
21 25
21 26
21 27
21 28
21 29
21 30
21 37
21 42
21 46
21 48
21 54
21 56
21 61
21 72
21 75
21 79
21 88
21 35
21 38
21 45
21 52
21 60
21 67
21 76
21 81
21 40
21 50
21 51
21 53
21 62
21 77
21 78
21 84
21 32
21 34
21 36
21 58
21 69
21 85
21 86
21 87
22 23
22 24
22 25
22 26
22 27
22 28
22 29
22 30
22 31
22 32
22 33
22 34
22 35
22 36
22 37
22 38
22 39
22 40
22 43
22 47
22 48
22 49
22 50
22 51
22 52
22 44
22 53
22 60
22 61
22 62
22 63
22 64
22 41
22 54
22 56
22 78
22 79
22 55
22 58
22 68
22 71
22 75
22 83
22 84
22 45
22 67
22 72
22 76
22 81
22 66
22 90
23 24
23 25
23 26
23 27
23 28
23 29
23 30
23 35
23 38
23 39
23 40
23 43
23 47
23 48
23 49
23 50
23 51
23 52
23 44
23 53
23 60
23 61
23 62
23 63
23 64
23 32
23 33
23 54
23 67
23 68
23 69
23 70
23 73
23 74
23 83
23 85
23 45
23 72
23 82
23 86
23 87
23 55
23 75
23 79
23 34
23 66
23 81
23 89
23 91
23 42
23 76
23 84
23 78
23 46
23 77
24 25
24 26
24 27
24 28
24 29
24 30
24 44
24 49
24 53
24 60
24 61
24 62
24 63
24 64
24 32
24 34
24 65
24 66
24 67
24 68
24 69
24 70
24 71
24 72
24 36
24 40
24 43
24 52
24 75
24 83
24 84
24 31
24 41
24 58
24 59
24 74
24 85
24 45
24 54
24 82
24 86
24 87
24 38
24 50
24 73
24 79
24 89
24 35
24 76
24 81
24 33
24 57
24 77
24 78
24 80
25 26
25 27
25 28
25 29
25 30
25 34
25 38
25 40
25 41
25 42
25 43
25 44
25 45
25 46
25 47
25 32
25 52
25 54
25 56
25 62
25 63
25 78
25 79
25 36
25 39
25 59
25 61
25 66
25 67
25 74
25 77
25 80
25 33
25 68
25 69
25 70
25 73
25 83
25 85
25 48
25 50
25 51
25 53
25 76
25 84
26 27
26 28
26 29
26 30
26 31
26 32
26 33
26 34
26 35
26 36
26 37
26 38
26 39
26 42
26 44
26 47
26 52
26 53
26 54
26 55
26 56
26 57
26 58
26 59
26 45
26 64
26 66
26 67
26 75
26 76
26 60
26 62
26 72
26 73
26 77
26 82
26 83
26 48
26 65
26 68
26 70
26 74
26 43
26 61
26 69
26 86
26 87
26 71
26 81
26 51
26 84
26 41
26 46
26 89
26 90
27 28
27 29
27 30
27 44
27 49
27 53
27 60
27 61
27 62
27 63
27 64
27 32
27 41
27 52
27 54
27 56
27 78
27 79
27 33
27 35
27 43
27 45
27 57
27 58
27 71
27 72
27 74
27 36
27 40
27 75
27 83
27 84
27 31
27 59
27 65
27 85
27 39
27 55
27 68
27 70
27 82
27 86
27 87
27 37
27 38
27 47
27 51
27 77
27 67
27 69
27 73
27 81
27 89
28 29
28 30
28 31
28 32
28 33
28 34
28 35
28 36
28 37
28 38
28 39
28 41
28 52
28 54
28 56
28 62
28 63
28 78
28 79
28 49
28 50
28 51
28 53
28 55
28 58
28 68
28 47
28 60
28 64
28 70
28 73
28 75
28 87
29 30
29 32
29 34
29 60
29 64
29 65
29 66
29 67
29 68
29 69
29 70
29 71
29 72
29 33
29 39
29 52
29 61
29 74
29 77
29 85
29 89
29 36
29 40
29 45
29 56
29 58
29 83
29 43
29 44
29 48
29 81
29 88
29 42
29 47
29 73
29 76
29 84
30 39
30 40
30 43
30 45
30 48
30 65
30 68
30 80
30 81
30 36
30 49
30 52
30 71
30 75
30 83
30 84
30 37
30 42
30 46
30 54
30 56
30 61
30 72
30 79
30 88
30 34
30 38
30 50
30 67
30 69
30 73
30 89
30 58
30 64
30 74
30 87
30 35
30 60
30 76
31 32
31 33
31 34
31 35
31 36
31 37
31 38
31 39
31 53
31 58
31 60
31 62
31 72
31 73
31 77
31 82
31 83
31 41
31 59
31 65
31 74
31 85
31 47
31 51
31 61
32 33
32 34
32 35
32 36
32 37
32 38
32 39
32 60
32 64
32 65
32 66
32 67
32 68
32 69
32 70
32 71
32 72
32 41
32 52
32 54
32 56
32 62
32 63
32 78
32 79
32 47
32 61
32 73
32 74
32 83
32 85
32 58
32 59
32 42
32 81
32 86
32 87
33 34
33 35
33 36
33 37
33 38
33 39
33 43
33 45
33 59
33 68
33 71
33 73
33 74
33 57
33 58
33 60
33 62
33 72
33 47
33 54
33 61
33 67
33 69
33 70
33 83
33 85
33 44
33 55
33 66
33 79
33 90
33 52
33 77
33 89
33 51
33 53
33 64
33 75
33 76
33 78
33 80
33 48
33 56
34 35
34 36
34 37
34 38
34 39
34 40
34 41
34 42
34 43
34 44
34 45
34 46
34 47
34 60
34 64
34 65
34 66
34 67
34 68
34 69
34 70
34 71
34 72
34 59
34 73
34 74
34 50
34 79
34 84
34 89
34 52
34 61
34 77
34 85
34 56
34 58
34 83
34 51
34 81
34 91
34 48
34 88
34 57
34 75
34 87
34 90
34 86
35 36
35 37
35 38
35 39
35 40
35 43
35 47
35 48
35 49
35 50
35 51
35 52
35 44
35 45
35 53
35 58
35 59
35 64
35 66
35 67
35 75
35 76
35 57
35 60
35 62
35 71
35 72
35 74
35 61
35 81
35 77
35 78
35 80
36 37
36 38
36 39
36 43
36 59
36 61
36 62
36 66
36 67
36 74
36 77
36 80
36 40
36 49
36 52
36 71
36 75
36 83
36 84
36 47
36 51
36 53
36 45
36 56
36 58
36 60
36 65
36 68
36 57
36 64
36 76
36 78
36 42
36 69
36 72
36 81
36 85
36 86
36 87
37 38
37 39
37 42
37 46
37 48
37 54
37 56
37 61
37 72
37 75
37 79
37 88
37 44
37 55
37 58
37 60
37 62
37 66
37 90
37 47
37 51
37 53
37 74
37 77
37 83
37 41
37 57
37 65
37 87
37 89
38 39
38 40
38 41
38 42
38 43
38 44
38 45
38 46
38 47
38 48
38 49
38 50
38 51
38 52
38 53
38 56
38 59
38 65
38 68
38 70
38 72
38 74
38 77
38 67
38 69
38 73
38 79
38 84
38 89
38 54
38 58
38 64
38 71
38 75
38 81
38 87
38 60
38 61
38 76
38 83
38 55
38 82
38 85
38 86
39 40
39 43
39 47
39 48
39 49
39 50
39 51
39 52
39 54
39 63
39 67
39 73
39 75
39 77
39 45
39 65
39 68
39 80
39 81
39 59
39 61
39 62
39 66
39 74
39 44
39 55
39 70
39 79
39 82
39 86
39 87
39 85
39 89
39 42
39 64
39 76
39 84
39 69
39 78
40 41
40 42
40 43
40 44
40 45
40 46
40 47
40 48
40 49
40 50
40 51
40 52
40 65
40 68
40 80
40 81
40 71
40 75
40 83
40 84
40 56
40 58
40 60
40 61
40 74
40 53
40 54
40 62
40 76
40 77
40 78
40 63
40 67
40 85
40 91
41 42
41 43
41 44
41 45
41 46
41 47
41 52
41 54
41 56
41 62
41 63
41 78
41 79
41 58
41 59
41 65
41 74
41 85
41 57
41 75
41 87
41 89
41 90
42 43
42 44
42 45
42 46
42 47
42 52
42 53
42 54
42 55
42 56
42 57
42 58
42 59
42 48
42 61
42 72
42 75
42 79
42 88
42 64
42 73
42 76
42 84
42 69
42 81
42 85
42 86
42 87
43 44
43 45
43 46
43 47
43 48
43 49
43 50
43 51
43 52
43 59
43 68
43 71
43 73
43 74
43 65
43 80
43 81
43 61
43 62
43 66
43 67
43 77
43 57
43 58
43 60
43 72
43 75
43 83
43 84
43 54
43 69
43 82
43 86
43 87
43 55
43 70
43 79
43 64
43 56
43 88
43 78
43 63
43 76
43 85
43 91
43 90
44 45
44 46
44 47
44 52
44 53
44 54
44 55
44 56
44 57
44 58
44 59
44 49
44 60
44 61
44 62
44 63
44 64
44 66
44 67
44 75
44 76
44 68
44 70
44 79
44 82
44 86
44 87
44 72
44 90
44 48
44 65
44 69
44 81
44 83
44 88
44 73
44 84
45 46
45 47
45 59
45 68
45 71
45 73
45 74
45 52
45 53
45 58
45 64
45 66
45 67
45 75
45 76
45 48
45 65
45 80
45 81
45 57
45 60
45 62
45 72
45 54
45 61
45 69
45 82
45 86
45 87
45 56
45 83
45 85
45 90
46 47
46 48
46 54
46 56
46 61
46 72
46 75
46 79
46 88
46 57
46 65
46 87
46 89
46 90
46 50
46 51
46 53
46 62
46 76
46 77
46 78
46 84
47 48
47 49
47 50
47 51
47 52
47 53
47 54
47 55
47 56
47 57
47 58
47 59
47 64
47 66
47 67
47 75
47 76
47 61
47 68
47 69
47 70
47 73
47 74
47 83
47 85
47 60
47 87
47 77
47 84
47 78
47 82
48 49
48 50
48 51
48 52
48 54
48 63
48 67
48 73
48 75
48 77
48 65
48 68
48 80
48 81
48 53
48 56
48 59
48 70
48 72
48 74
48 61
48 79
48 88
48 58
48 69
48 83
48 62
48 76
48 78
48 84
48 66
48 85
48 90
49 50
49 51
49 52
49 53
49 60
49 61
49 62
49 63
49 64
49 55
49 58
49 68
49 71
49 75
49 83
49 84
49 67
49 69
49 73
49 74
49 78
49 82
50 51
50 52
50 53
50 55
50 58
50 63
50 68
50 65
50 67
50 69
50 73
50 79
50 84
50 89
50 66
50 81
50 83
50 91
50 54
50 62
50 76
50 77
50 78
51 52
51 53
51 55
51 58
51 63
51 68
51 61
51 74
51 77
51 83
51 66
51 81
51 89
51 91
51 54
51 62
51 76
51 78
51 84
51 67
51 75
51 85
52 53
52 54
52 55
52 56
52 57
52 58
52 59
52 64
52 66
52 67
52 75
52 76
52 62
52 63
52 78
52 79
52 71
52 83
52 84
52 60
52 61
52 72
52 81
52 74
52 77
52 85
52 89
52 73
53 54
53 55
53 56
53 57
53 58
53 59
53 60
53 61
53 62
53 63
53 64
53 66
53 67
53 75
53 76
53 72
53 73
53 77
53 82
53 83
53 68
53 65
53 70
53 74
53 78
53 84
54 55
54 56
54 57
54 58
54 59
54 63
54 67
54 73
54 75
54 77
54 62
54 78
54 79
54 61
54 68
54 69
54 70
54 74
54 83
54 85
54 72
54 82
54 86
54 87
54 88
54 60
54 64
54 71
54 81
54 76
54 84
55 56
55 57
55 58
55 59
55 63
55 68
55 70
55 75
55 79
55 82
55 86
55 87
55 60
55 62
55 66
55 72
55 90
55 71
55 73
55 77
55 81
55 85
55 89
56 57
56 58
56 59
56 62
56 63
56 78
56 79
56 65
56 68
56 70
56 72
56 74
56 77
56 61
56 75
56 88
56 60
56 83
56 69
56 81
56 66
56 73
56 85
56 90
57 58
57 59
57 60
57 62
57 71
57 72
57 74
57 65
57 75
57 87
57 89
57 90
57 61
57 64
57 66
57 67
57 76
57 77
57 78
57 80
58 59
58 64
58 66
58 67
58 75
58 76
58 60
58 62
58 72
58 73
58 77
58 82
58 83
58 63
58 68
58 71
58 74
58 65
58 85
58 69
58 81
58 87
58 79
58 90
58 61
58 88
58 78
58 80
58 91
58 86
59 68
59 71
59 73
59 74
59 64
59 66
59 67
59 75
59 76
59 61
59 62
59 77
59 80
59 65
59 70
59 72
59 85
59 69
59 90
60 61
60 62
60 63
60 64
60 65
60 66
60 67
60 68
60 69
60 70
60 71
60 72
60 73
60 77
60 82
60 83
60 74
60 75
60 87
60 76
60 81
60 79
60 90
61 62
61 63
61 64
61 66
61 67
61 74
61 77
61 80
61 68
61 69
61 70
61 73
61 83
61 85
61 72
61 82
61 86
61 87
61 75
61 79
61 88
61 76
61 81
61 89
61 65
61 78
61 91
62 63
62 64
62 78
62 79
62 72
62 73
62 77
62 82
62 83
62 66
62 67
62 74
62 80
62 71
62 90
62 76
62 84
63 64
63 67
63 73
63 75
63 77
63 78
63 79
63 68
63 76
63 83
63 85
63 91
64 65
64 66
64 67
64 68
64 69
64 70
64 71
64 72
64 75
64 76
64 73
64 87
64 74
64 81
64 84
64 77
64 78
64 80
65 66
65 67
65 68
65 69
65 70
65 71
65 72
65 80
65 81
65 74
65 77
65 85
65 73
65 79
65 84
65 89
65 83
65 88
65 75
65 87
65 90
66 67
66 68
66 69
66 70
66 71
66 72
66 75
66 76
66 74
66 77
66 80
66 79
66 90
66 81
66 83
66 89
66 91
66 78
66 73
66 85
67 68
67 69
67 70
67 71
67 72
67 75
67 76
67 73
67 77
67 74
67 80
67 83
67 85
67 79
67 84
67 89
67 81
67 78
67 82
67 91
68 69
68 70
68 71
68 72
68 73
68 74
68 80
68 81
68 83
68 85
68 77
68 75
68 79
68 82
68 86
68 87
69 70
69 71
69 72
69 73
69 74
69 83
69 85
69 82
69 86
69 87
69 79
69 84
69 89
69 75
69 81
69 88
69 78
69 90
70 71
70 72
70 73
70 74
70 83
70 85
70 77
70 75
70 79
70 82
70 86
70 87
71 72
71 73
71 74
71 75
71 83
71 84
71 81
71 87
71 77
71 82
71 85
71 86
71 89
72 73
72 77
72 82
72 83
72 74
72 86
72 87
72 75
72 79
72 88
72 76
72 81
72 90
72 85
73 74
73 75
73 77
73 82
73 83
73 85
73 79
73 84
73 89
73 87
73 81
73 76
73 78
73 86
73 90
74 77
74 80
74 83
74 85
74 82
74 86
74 87
74 75
74 81
74 89
74 78
74 84
75 76
75 77
75 83
75 84
75 79
75 82
75 86
75 87
75 88
75 81
75 89
75 90
75 78
75 80
75 85
75 91
76 81
76 84
76 77
76 78
76 80
76 83
76 85
76 91
77 82
77 83
77 80
77 85
77 89
77 78
77 84
77 81
77 86
78 79
78 82
78 84
78 80
78 83
78 85
78 91
79 82
79 86
79 87
79 88
79 84
79 89
79 90
80 81
81 87
81 83
81 89
81 91
81 88
81 82
81 85
81 86
82 83
82 86
82 87
82 84
82 85
82 89
83 84
83 85
83 89
83 91
83 88
84 89
85 89
85 91
85 86
85 90
85 87
86 87
86 89
87 89
87 90
89 91
89 90
